c generated by sgen
p cnf 101 212
-2 -3 -4 0
-1 -3 -4 0
-1 -2 -4 0
-1 -2 -3 0
-6 -7 -8 0
-5 -7 -8 0
-5 -6 -8 0
-5 -6 -7 0
-10 -11 -12 0
-9 -11 -12 0
-9 -10 -12 0
-9 -10 -11 0
-14 -15 -16 0
-13 -15 -16 0
-13 -14 -16 0
-13 -14 -15 0
-18 -19 -20 0
-17 -19 -20 0
-17 -18 -20 0
-17 -18 -19 0
-22 -23 -24 0
-21 -23 -24 0
-21 -22 -24 0
-21 -22 -23 0
-26 -27 -28 0
-25 -27 -28 0
-25 -26 -28 0
-25 -26 -27 0
-30 -31 -32 0
-29 -31 -32 0
-29 -30 -32 0
-29 -30 -31 0
-34 -35 -36 0
-33 -35 -36 0
-33 -34 -36 0
-33 -34 -35 0
-38 -39 -40 0
-37 -39 -40 0
-37 -38 -40 0
-37 -38 -39 0
-42 -43 -44 0
-41 -43 -44 0
-41 -42 -44 0
-41 -42 -43 0
-46 -47 -48 0
-45 -47 -48 0
-45 -46 -48 0
-45 -46 -47 0
-50 -51 -52 0
-49 -51 -52 0
-49 -50 -52 0
-49 -50 -51 0
-54 -55 -56 0
-53 -55 -56 0
-53 -54 -56 0
-53 -54 -55 0
-58 -59 -60 0
-57 -59 -60 0
-57 -58 -60 0
-57 -58 -59 0
-62 -63 -64 0
-61 -63 -64 0
-61 -62 -64 0
-61 -62 -63 0
-66 -67 -68 0
-65 -67 -68 0
-65 -66 -68 0
-65 -66 -67 0
-70 -71 -72 0
-69 -71 -72 0
-69 -70 -72 0
-69 -70 -71 0
-74 -75 -76 0
-73 -75 -76 0
-73 -74 -76 0
-73 -74 -75 0
-78 -79 -80 0
-77 -79 -80 0
-77 -78 -80 0
-77 -78 -79 0
-82 -83 -84 0
-81 -83 -84 0
-81 -82 -84 0
-81 -82 -83 0
-86 -87 -88 0
-85 -87 -88 0
-85 -86 -88 0
-85 -86 -87 0
-90 -91 -92 0
-89 -91 -92 0
-89 -90 -92 0
-89 -90 -91 0
-94 -95 -96 0
-93 -95 -96 0
-93 -94 -96 0
-93 -94 -95 0
-97 -98 -99 0
-97 -98 -100 0
-97 -98 -101 0
-97 -99 -100 0
-97 -99 -101 0
-97 -100 -101 0
-98 -99 -100 0
-98 -99 -101 0
-98 -100 -101 0
-99 -100 -101 0
85 4 97 0
17 4 97 0
17 85 97 0
17 85 4 0
70 57 25 0
90 57 25 0
90 70 25 0
90 70 57 0
80 31 27 0
101 31 27 0
101 80 27 0
101 80 31 0
2 55 32 0
91 55 32 0
91 2 32 0
91 2 55 0
8 77 56 0
44 77 56 0
44 8 56 0
44 8 77 0
48 21 26 0
84 21 26 0
84 48 26 0
84 48 21 0
63 13 1 0
93 13 1 0
93 63 1 0
93 63 13 0
73 24 16 0
87 24 16 0
87 73 16 0
87 73 24 0
76 51 35 0
45 51 35 0
45 76 35 0
45 76 51 0
43 72 96 0
100 72 96 0
100 43 96 0
100 43 72 0
52 18 12 0
6 18 12 0
6 52 12 0
6 52 18 0
65 36 98 0
9 36 98 0
9 65 98 0
9 65 36 0
10 29 71 0
74 29 71 0
74 10 71 0
74 10 29 0
15 28 54 0
68 28 54 0
68 15 54 0
68 15 28 0
38 95 33 0
23 95 33 0
23 38 33 0
23 38 95 0
81 94 58 0
5 94 58 0
5 81 58 0
5 81 94 0
62 50 89 0
22 50 89 0
22 62 89 0
22 62 50 0
34 79 69 0
64 79 69 0
64 34 69 0
64 34 79 0
75 99 92 0
39 99 92 0
39 75 92 0
39 75 99 0
3 59 37 0
78 59 37 0
78 3 37 0
78 3 59 0
42 11 14 0
46 11 14 0
46 42 14 0
46 42 11 0
19 61 82 0
53 61 82 0
53 19 82 0
53 19 61 0
40 49 86 0
83 49 86 0
83 40 86 0
83 40 49 0
30 7 47 0
67 7 47 0
67 30 47 0
67 30 7 0
41 60 20 0
41 60 66 0
41 60 88 0
41 20 66 0
41 20 88 0
41 66 88 0
60 20 66 0
60 20 88 0
60 66 88 0
20 66 88 0
